$OMP=15
[Title]
Gamma attenuation 

set:c1[0.1] $Energy 
set:c2[1] $Thickness    
set:c3[15.341] $Density

[Parameters]
icntl    =           0     # (D=0) 3:ECH 5:NOR 6:SRC 7,8:GSH 11:DSH 12:DUMP
negs = -1
maxcas   =          100000     # (D=10) number of particles per one batch
maxbch   =           100     # (D=10) number of batches
istdcut = 1

[Source]
   s-type =   1             # mono-energetic axial source
     proj =  photon         # kind of incident particle         
      dir =   1           # z-direction of beam [cosine]
       r0 =   0.01            # radius [cm]
       z0 =  -5           # minimum position of z-axis [cm]
       z1 =  -5            # maximum position of z-axis [cm]
       e0 =   c1        

[Material] 
mat[1]
Cu	0.1366
Zn	0.1127
Mo	0.0535
Ta	0.3477
W	0.3495


[Material] off 
mat[1]    
Ni	0.1898
Cu	0.0601
Mo	0.0503
Ta	0.3499
W	0.3499


[Surface]
10 so	10.
20 cz  5
31 pz 0
32 pz c2

[Cell]
100	 0  	   -10  #102 $inner void
101	-1	       10 					$ outter void
102 1 -c3 -20 31 -32


[ T - T r a c k ]   $ particle distribution
     mesh =  xyz            # mesh type is xyz scoring mesh
   x-type =    2            # x-mesh is linear given by xmin, xmax and nx
       nx =  500            # number of x-mesh points
     xmin =  -10.           # minimum value of x-mesh points
     xmax =   10.           # maximum value of x-mesh points
   y-type =    1            # y-mesh is given by the below data
       ny =    1            # number of y-mesh points
           -5.0  5.0
   z-type =    2            # z-mesh is linear given by zmin, zmax and nz
       nz =  500            # number of z-mesh points
     zmin =  -10.           # minimum value of z-mesh points
     zmax =   20.           # maximum value of z-mesh points
	 part =  all      
   e-type =    1            # e-mesh is given by the below data
       ne =    1            # number of e-mesh points
            0.0  1000.0
     unit =    1            # unit is [1/cm^2/source]
     axis =   xz            # axis of output
     file = track_xz.out  # file name of output for the above axis
    title = Track Detection using [T-track] tally
    gshow =    3            # 0: no 1:bnd, 2:bnd+mat, 3:bnd+reg 4:bnd+lat
   epsout =    1            # (D=0) generate eps file by ANGEL

[ T - T r a c k ] $ intensity
     mesh =  r-z            # mesh type is xyz scoring mesh
   r-type = 1
    nr = 1
    0.0  0.5
   z-type =    2            # z-mesh is linear given by zmin, zmax and nz
       nz =  21           # number of z-mesh points
     zmin =  0           # minimum value of z-mesh points
     zmax =   c2           # maximum value of z-mesh points
     part =  photon      
   e-type =   1             # PENTING: Kita bagi berdasarkan energi
       ne =   1             # 2 Kelompok energi
	c1-0.001  c1+0.001
     unit =    1            # unit is [1/cm^2/source]
     axis =   z            # axis of output
     file = intensity.out  # file name of output for the above axis
    title = Track Detection using [T-track] tally
    gshow =    1            # 0: no 1:bnd, 2:bnd+mat, 3:bnd+reg 4:bnd+lat
   epsout =    1            # (D=0) generate eps file by ANGEL
   stdcut = 0.01
   
[ T-4DTrack ] off
file = 4dtrack.out
[ E n d ]